(set-logic HORN)


(declare-fun |__VERIFIER_assert@_ret| ( Int ) Bool)
(declare-fun |main@_bb| ( Int Int Int (Array Int Int) Int (Array Int Int) ) Bool)
(declare-fun |main@verifier.error.split| ( ) Bool)
(declare-fun |__VERIFIER_assert@_call| ( Int ) Bool)
(declare-fun |main@_bb4| ( Int Int (Array Int Int) Int Int (Array Int Int) ) Bool)
(declare-fun |main@_bb6| ( Int (Array Int Int) Int (Array Int Int) Int Int ) Bool)
(declare-fun |__VERIFIER_assert| ( Bool Bool Bool Int ) Bool)
(declare-fun |main@entry| ( Int ) Bool)

(assert
  (forall ( (A Int) (v_1 Bool) (v_2 Bool) (v_3 Bool) ) 
    (=>
      (and
        (and true (= v_1 true) (= v_2 true) (= v_3 true))
      )
      (__VERIFIER_assert v_1 v_2 v_3 A)
    )
  )
)
(assert
  (forall ( (A Int) (v_1 Bool) (v_2 Bool) (v_3 Bool) ) 
    (=>
      (and
        (and true (= v_1 false) (= v_2 true) (= v_3 true))
      )
      (__VERIFIER_assert v_1 v_2 v_3 A)
    )
  )
)
(assert
  (forall ( (A Int) (v_1 Bool) (v_2 Bool) (v_3 Bool) ) 
    (=>
      (and
        (and true (= v_1 false) (= v_2 false) (= v_3 false))
      )
      (__VERIFIER_assert v_1 v_2 v_3 A)
    )
  )
)
(assert
  (forall ( (A Int) (v_1 Bool) (v_2 Bool) (v_3 Bool) ) 
    (=>
      (and
        (__VERIFIER_assert@_ret A)
        (and (= v_1 true) (= v_2 false) (= v_3 false))
      )
      (__VERIFIER_assert v_1 v_2 v_3 A)
    )
  )
)
(assert
  (forall ( (A Int) ) 
    (=>
      (and
        true
      )
      (__VERIFIER_assert@_call A)
    )
  )
)
(assert
  (forall ( (A Bool) (B Bool) (C Bool) (D Int) ) 
    (=>
      (and
        (__VERIFIER_assert@_call D)
        (and (or (not C) (and C B)) (not A) (= C true) (= A (= D 0)))
      )
      (__VERIFIER_assert@_ret D)
    )
  )
)
(assert
  (forall ( (A Int) ) 
    (=>
      (and
        true
      )
      (main@entry A)
    )
  )
)
(assert
  (forall ( (A (Array Int Int)) (B (Array Int Int)) (C Bool) (D Bool) (E Int) (F Int) (G Int) (H Int) (I (Array Int Int)) (J Int) (K (Array Int Int)) ) 
    (=>
      (and
        (main@entry F)
        (and (not (<= J 0))
     (or (not D) (not C) (= B A))
     (or (not D) (not C) (= I B))
     (or (not D) (not C) (= E 0))
     (or (not D) (not C) (= H E))
     (or (not C) (and D C))
     (= C true)
     (not (<= G 0)))
      )
      (main@_bb F G H I J K)
    )
  )
)
(assert
  (forall ( (A Bool) (B Bool) (C Int) (D (Array Int Int)) (E Int) (F Int) (G Int) (H (Array Int Int)) (I Int) (J (Array Int Int)) (K Bool) (L Bool) (M Int) (N Int) (O Int) (P Int) (Q (Array Int Int)) (R Int) (S (Array Int Int)) ) 
    (=>
      (and
        (main@_bb N O G D R S)
        (let ((a!1 (= B (and (not (<= 5 G)) (>= G 0)))))
  (and (or (not (<= E 0)) (<= O 0) (not L))
       (or (not A) B (not L))
       (or (not L) (not K) (= J H))
       (or (not L) (not K) (= Q J))
       (or (not L) (not K) (= M I))
       (or (not L) (not K) (= P M))
       (or (not K) (and L K))
       (or (not L) (= H (store D E F)))
       (or (not L) (= C N))
       (or (not L) (= E (+ O G)))
       (or (not L) (= I (+ 1 G)))
       (or (not L) (not (<= O 0)))
       (or (not L) (and L A))
       (= K true)
       a!1))
      )
      (main@_bb N O P Q R S)
    )
  )
)
(assert
  (forall ( (A Int) (B Int) (C Bool) (D Bool) (E (Array Int Int)) (F Int) (G (Array Int Int)) (H (Array Int Int)) (I Int) (J Bool) (K Bool) (L Int) (M Int) (N Int) (O (Array Int Int)) (P Int) (Q Int) (R (Array Int Int)) ) 
    (=>
      (and
        (main@_bb A M B E P G)
        (let ((a!1 (= D (and (not (<= 5 B)) (>= B 0)))))
  (and (or (not (<= F 0)) (<= M 0) (not K))
       (or (not K) (not D) (not C))
       (or (not K) (not J) (= H G))
       (or (not K) (not J) (= R H))
       (or (not K) (not J) (= I 4))
       (or (not K) (not J) (= L 0))
       (or (not K) (not J) (= N I))
       (or (not K) (not J) (= Q L))
       (or (not J) (and K J))
       (or (not K) (= O (store E F 0)))
       (or (not K) (= F (+ 4 M)))
       (or (not K) (not (<= M 0)))
       (or (not K) (and K C))
       (= J true)
       a!1))
      )
      (main@_bb4 M N O P Q R)
    )
  )
)
(assert
  (forall ( (A Bool) (B Bool) (C Int) (D (Array Int Int)) (E Int) (F Int) (G Int) (H Int) (I (Array Int Int)) (J Int) (K Int) (L (Array Int Int)) (M Int) (N Bool) (O Bool) (P Int) (Q Int) (R Int) (S (Array Int Int)) (T Int) (U Int) (V (Array Int Int)) ) 
    (=>
      (and
        (main@_bb4 Q H S T G D)
        (and (or (<= T 0) (not (<= E 0)) (not O))
     (or (<= Q 0) (not (<= C 0)) (not O))
     (or B (not O) (not A))
     (or (not O) (not N) (= L I))
     (or (not O) (not N) (= V L))
     (or (not O) (not N) (= M J))
     (or (not O) (not N) (= P K))
     (or (not O) (not N) (= R M))
     (or (not O) (not N) (= U P))
     (or (not N) (and O N))
     (or (not O) (= I (store D E F)))
     (or (not O) (= C (+ Q H)))
     (or (not O) (= K (+ 1 G)))
     (or (not O) (= E (+ T G)))
     (or (not O) (= F (select S C)))
     (or (not O) (= J (+ (- 1) H)))
     (or (not O) (not (<= T 0)))
     (or (not O) (not (<= Q 0)))
     (or (not O) (and O A))
     (= N true)
     (not (= (<= H (- 1)) B)))
      )
      (main@_bb4 Q R S T U V)
    )
  )
)
(assert
  (forall ( (A Int) (B Int) (C Bool) (D Int) (E Bool) (F Bool) (G Int) (H Int) (I (Array Int Int)) (J Int) (K (Array Int Int)) (L Int) (M Int) ) 
    (=>
      (and
        (main@_bb4 H B I J A K)
        (and (or (not F) (not E) (= D 0))
     (or (not F) (not E) (= G 4))
     (or (not F) (not E) (= L G))
     (or (not F) (not E) (= M D))
     (or (not F) (not E) (not C))
     (or (not E) (and F E))
     (= E true)
     (not (= (<= B (- 1)) C)))
      )
      (main@_bb6 H I J K L M)
    )
  )
)
(assert
  (forall ( (A Bool) (B Bool) (C Int) (D Int) (E Int) (F Int) (G Bool) (H Bool) (I Bool) (J Int) (K Int) (L Int) (M Int) (N Int) (O Int) (P Bool) (Q Bool) (R Int) (S Int) (T (Array Int Int)) (U Int) (V (Array Int Int)) (W Int) (X Int) (v_24 Bool) (v_25 Bool) ) 
    (=>
      (and
        (main@_bb6 S T U V K L)
        (__VERIFIER_assert Q v_24 v_25 J)
        (let ((a!1 (= A (and (not (<= 5 L)) (>= L 0)))))
  (and (= v_24 false)
       (= v_25 false)
       (or (<= S 0) (not H) (not (<= C 0)))
       (or (<= U 0) (not H) (not (<= D 0)))
       (or I (not Q) (not H))
       (or (not Q) (not P) (= O M))
       (or (not Q) (not P) (= R N))
       (or (not Q) (not P) (= W R))
       (or (not Q) (not P) (= X O))
       (or (not H) (= G (= E F)))
       (or (not H) (= C (+ S L)))
       (or (not H) (= D (+ U K)))
       (or (not H) (= F (select V D)))
       (or (not H) (= E (select T C)))
       (or (not H) (= J (ite G 1 0)))
       (or (not H) (not (<= S 0)))
       (or (not H) (not (<= U 0)))
       (or (not H) (and H B))
       (or (not P) (and Q P))
       (or (not Q) (= M (+ 1 L)))
       (or (not Q) (= N (+ (- 1) K)))
       (or (not Q) (and Q H))
       (= A true)
       (= P true)
       a!1))
      )
      (main@_bb6 S T U V W X)
    )
  )
)
(assert
  (forall ( (A Bool) (B Bool) (C Int) (D Int) (E (Array Int Int)) (F Int) (G Int) (H Int) (I (Array Int Int)) (J Int) (K Int) (L Int) (M Bool) (N Bool) (O Bool) (P Bool) (Q Int) (R Bool) (S Bool) (T Bool) (U Bool) (V Bool) ) 
    (=>
      (and
        (main@_bb6 D E H I G C)
        (let ((a!1 (= A (and (not (<= 5 C)) (>= C 0)))))
  (and (or (not N) (not (<= F 0)) (<= D 0))
       (or (not N) (not (<= J 0)) (<= H 0))
       (or (not N) (not O) (not P))
       (or (not P) (and N P))
       (or (not V) (and U V))
       (or (not N) (= M (= K L)))
       (or (not N) (= K (select E F)))
       (or (not N) (= F (+ D C)))
       (or (not N) (= J (+ H G)))
       (or (not N) (= L (select I J)))
       (or (not N) (= Q (ite M 1 0)))
       (or (not N) (not (<= D 0)))
       (or (not N) (not (<= H 0)))
       (or (not N) (and N B))
       (or (not S) (= R (= Q 0)))
       (or (not S) (and S P))
       (or (not S) R)
       (or (not T) (and T S))
       (or (not U) (and U T))
       (= V true)
       (= A true)
       a!1))
      )
      main@verifier.error.split
    )
  )
)
(assert
  (forall ( (CHC_COMP_UNUSED Bool) ) 
    (=>
      (and
        main@verifier.error.split
        true
      )
      false
    )
  )
)

(check-sat)
(exit)
